words_train/words_929_SAT.qaiger
aag 103 16 0 1 87
32
16
8
22
20
12
26
30
6
4
18
10
28
2
14
24
207
34 24 16
36 22 16
38 20 16
40 18 14
42 21 17
44 43 39
46 44 40
48 47 39
50 23 17
52 51 37
54 52 49
56 55 37
58 25 17
60 59 35
62 60 57
64 63 35
66 26 16
68 27 17
70 69 67
72 70 65
74 71 64
76 75 73
78 7 5
80 78 9
82 80 11
84 82 13
86 83 12
88 87 85
90 88 77
92 61 56
94 93 63
96 81 10
98 97 83
100 98 95
102 101 91
104 53 48
106 105 55
108 79 8
110 109 81
112 110 107
114 12 2
116 13 3
118 117 115
120 19 15
122 121 41
124 122 5
126 123 4
128 127 125
130 128 118
132 130 113
134 132 102
136 111 106
138 45 41
140 139 47
142 6 4
144 143 79
146 145 140
148 144 141
150 149 147
152 150 137
154 99 94
156 89 76
158 157 155
160 158 152
162 160 134
164 28 16
166 73 67
168 29 17
170 169 165
172 170 167
174 173 165
176 84 15
178 177 31
180 176 30
182 181 179
184 182 174
186 183 175
188 187 185
190 189 162
192 171 166
194 193 173
196 85 14
198 197 177
200 198 194
202 199 195
204 203 201
206 205 190
i0 1 x[7]
i1 2 y[7]
i2 2 y[3]
i3 1 x[2]
i4 1 x[1]
i5 2 y[5]
i6 1 x[4]
i7 1 x[6]
i8 2 y[2]
i9 2 y[1]
i10 1 x[0]
i11 2 y[4]
i12 1 x[5]
i13 2 y[0]
i14 2 y[6]
i15 1 x[3]
o0 bool[0]
c
simplified
  !=
    subtract
      1
      2 y
    add
      >> 5
        2 y
      << 1
        1 x
