words_train/words_929_SAT.qaiger.qdimacs
p cnf 103 262
a 9 10 11 12 13 14 15 16 0
e 1 2 3 4 5 6 7 8 17 18 19 20 21 22 23 24 25 26 27 28 29 30 31 32 33 34 35 36 37 38 39 40 41 42 43 44 45 46 47 48 49 50 51 52 53 54 55 56 57 58 59 60 61 62 63 64 65 66 67 68 69 70 71 72 73 74 75 76 77 78 79 80 81 82 83 84 85 86 87 88 89 90 91 92 93 94 95 96 97 98 99 100 101 102 103 0
-12 -8 17 0
12 -17 0
8 -17 0
-11 -8 18 0
11 -18 0
8 -18 0
-10 -8 19 0
10 -19 0
8 -19 0
-9 -7 20 0
9 -20 0
7 -20 0
10 8 21 0
-10 -21 0
-8 -21 0
21 19 22 0
-21 -22 0
-19 -22 0
-22 -20 23 0
22 -23 0
20 -23 0
23 19 24 0
-23 -24 0
-19 -24 0
11 8 25 0
-11 -25 0
-8 -25 0
25 18 26 0
-25 -26 0
-18 -26 0
-26 24 27 0
26 -27 0
-24 -27 0
27 18 28 0
-27 -28 0
-18 -28 0
12 8 29 0
-12 -29 0
-8 -29 0
29 17 30 0
-29 -30 0
-17 -30 0
-30 28 31 0
30 -31 0
-28 -31 0
31 17 32 0
-31 -32 0
-17 -32 0
-13 -8 33 0
13 -33 0
8 -33 0
13 8 34 0
-13 -34 0
-8 -34 0
34 33 35 0
-34 -35 0
-33 -35 0
-35 32 36 0
35 -36 0
-32 -36 0
35 -32 37 0
-35 -37 0
32 -37 0
37 36 38 0
-37 -38 0
-36 -38 0
3 2 39 0
-3 -39 0
-2 -39 0
-39 4 40 0
39 -40 0
-4 -40 0
-40 5 41 0
40 -41 0
-5 -41 0
-41 6 42 0
41 -42 0
-6 -42 0
41 -6 43 0
-41 -43 0
6 -43 0
43 42 44 0
-43 -44 0
-42 -44 0
-44 38 45 0
44 -45 0
-38 -45 0
30 -28 46 0
-30 -46 0
28 -46 0
46 31 47 0
-46 -47 0
-31 -47 0
40 -5 48 0
-40 -48 0
5 -48 0
48 41 49 0
-48 -49 0
-41 -49 0
-49 47 50 0
49 -50 0
-47 -50 0
50 45 51 0
-50 -51 0
-45 -51 0
26 -24 52 0
-26 -52 0
24 -52 0
52 27 53 0
-52 -53 0
-27 -53 0
39 -4 54 0
-39 -54 0
4 -54 0
54 40 55 0
-54 -55 0
-40 -55 0
-55 53 56 0
55 -56 0
-53 -56 0
-6 -1 57 0
6 -57 0
1 -57 0
6 1 58 0
-6 -58 0
-1 -58 0
58 57 59 0
-58 -59 0
-57 -59 0
9 7 60 0
-9 -60 0
-7 -60 0
60 20 61 0
-60 -61 0
-20 -61 0
-61 2 62 0
61 -62 0
-2 -62 0
61 -2 63 0
-61 -63 0
2 -63 0
63 62 64 0
-63 -64 0
-62 -64 0
-64 -59 65 0
64 -65 0
59 -65 0
-65 56 66 0
65 -66 0
-56 -66 0
-66 -51 67 0
66 -67 0
51 -67 0
55 -53 68 0
-55 -68 0
53 -68 0
22 20 69 0
-22 -69 0
-20 -69 0
69 23 70 0
-69 -70 0
-23 -70 0
-3 -2 71 0
3 -71 0
2 -71 0
71 39 72 0
-71 -72 0
-39 -72 0
72 -70 73 0
-72 -73 0
70 -73 0
-72 70 74 0
72 -74 0
-70 -74 0
74 73 75 0
-74 -75 0
-73 -75 0
-75 68 76 0
75 -76 0
-68 -76 0
49 -47 77 0
-49 -77 0
47 -77 0
44 -38 78 0
-44 -78 0
38 -78 0
78 77 79 0
-78 -79 0
-77 -79 0
-79 -76 80 0
79 -80 0
76 -80 0
-80 -67 81 0
80 -81 0
67 -81 0
-14 -8 82 0
14 -82 0
8 -82 0
36 33 83 0
-36 -83 0
-33 -83 0
14 8 84 0
-14 -84 0
-8 -84 0
84 82 85 0
-84 -85 0
-82 -85 0
-85 83 86 0
85 -86 0
-83 -86 0
86 82 87 0
-86 -87 0
-82 -87 0
-42 7 88 0
42 -88 0
-7 -88 0
88 15 89 0
-88 -89 0
-15 -89 0
-88 -15 90 0
88 -90 0
15 -90 0
90 89 91 0
-90 -91 0
-89 -91 0
-91 -87 92 0
91 -92 0
87 -92 0
91 87 93 0
-91 -93 0
-87 -93 0
93 92 94 0
-93 -94 0
-92 -94 0
94 -81 95 0
-94 -95 0
81 -95 0
85 -83 96 0
-85 -96 0
83 -96 0
96 86 97 0
-96 -97 0
-86 -97 0
42 -7 98 0
-42 -98 0
7 -98 0
98 88 99 0
-98 -99 0
-88 -99 0
-99 -97 100 0
99 -100 0
97 -100 0
99 97 101 0
-99 -101 0
-97 -101 0
101 100 102 0
-101 -102 0
-100 -102 0
102 -95 103 0
-102 -103 0
95 -103 0
-103 0
